p edge 250 3193
e 1 8
e 1 12
e 1 41
e 1 60
e 1 74
e 1 75
e 1 80
e 1 81
e 1 82
e 1 87
e 1 97
e 1 99
e 1 106
e 1 110
e 1 117
e 1 122
e 1 123
e 1 135
e 1 150
e 1 161
e 1 168
e 1 170
e 1 175
e 1 184
e 1 189
e 1 196
e 1 204
e 1 210
e 1 229
e 2 15
e 2 23
e 2 58
e 2 84
e 2 89
e 2 92
e 2 94
e 2 109
e 2 111
e 2 113
e 2 116
e 2 145
e 2 172
e 2 174
e 2 181
e 2 191
e 2 198
e 2 222
e 2 233
e 2 245
e 2 248
e 3 8
e 3 30
e 3 36
e 3 47
e 3 101
e 3 112
e 3 116
e 3 143
e 3 152
e 3 157
e 3 160
e 3 164
e 3 175
e 3 180
e 3 188
e 3 198
e 3 221
e 3 238
e 3 250
e 4 14
e 4 21
e 4 24
e 4 32
e 4 39
e 4 47
e 4 56
e 4 57
e 4 60
e 4 94
e 4 113
e 4 116
e 4 137
e 4 151
e 4 154
e 4 156
e 4 168
e 4 182
e 4 186
e 4 188
e 4 207
e 4 218
e 4 225
e 4 226
e 4 230
e 4 234
e 4 239
e 4 241
e 4 242
e 4 247
e 5 15
e 5 22
e 5 38
e 5 68
e 5 73
e 5 85
e 5 97
e 5 101
e 5 103
e 5 131
e 5 132
e 5 147
e 5 152
e 5 177
e 5 206
e 5 217
e 5 219
e 5 221
e 5 234
e 5 249
e 6 8
e 6 12
e 6 23
e 6 26
e 6 27
e 6 31
e 6 35
e 6 42
e 6 48
e 6 50
e 6 54
e 6 56
e 6 62
e 6 67
e 6 78
e 6 95
e 6 98
e 6 99
e 6 117
e 6 124
e 6 132
e 6 138
e 6 141
e 6 150
e 6 157
e 6 169
e 6 179
e 6 180
e 6 189
e 6 191
e 6 200
e 6 202
e 6 210
e 6 215
e 6 221
e 6 223
e 6 236
e 7 12
e 7 18
e 7 20
e 7 30
e 7 40
e 7 73
e 7 80
e 7 88
e 7 95
e 7 96
e 7 113
e 7 116
e 7 126
e 7 134
e 7 136
e 7 144
e 7 146
e 7 164
e 7 166
e 7 168
e 7 170
e 7 171
e 7 172
e 7 175
e 7 182
e 7 189
e 7 190
e 7 192
e 7 226
e 7 234
e 7 241
e 7 244
e 7 246
e 8 15
e 8 54
e 8 68
e 8 69
e 8 71
e 8 74
e 8 75
e 8 76
e 8 82
e 8 89
e 8 100
e 8 108
e 8 109
e 8 110
e 8 111
e 8 112
e 8 120
e 8 130
e 8 132
e 8 135
e 8 142
e 8 144
e 8 149
e 8 163
e 8 170
e 8 178
e 8 188
e 8 199
e 8 205
e 8 208
e 8 214
e 8 235
e 8 250
e 9 10
e 9 18
e 9 19
e 9 27
e 9 35
e 9 43
e 9 51
e 9 90
e 9 94
e 9 130
e 9 134
e 9 141
e 9 157
e 9 166
e 9 190
e 9 197
e 9 200
e 9 221
e 9 230
e 9 249
e 10 61
e 10 64
e 10 75
e 10 90
e 10 98
e 10 153
e 10 170
e 10 181
e 10 189
e 10 191
e 10 195
e 10 197
e 10 208
e 10 209
e 10 210
e 10 215
e 10 220
e 10 229
e 10 236
e 10 245
e 10 246
e 11 43
e 11 77
e 11 85
e 11 96
e 11 113
e 11 115
e 11 119
e 11 145
e 11 174
e 11 177
e 11 179
e 11 183
e 11 195
e 11 199
e 11 201
e 11 206
e 11 215
e 11 218
e 11 239
e 11 249
e 12 52
e 12 77
e 12 81
e 12 82
e 12 84
e 12 99
e 12 105
e 12 107
e 12 108
e 12 133
e 12 141
e 12 143
e 12 162
e 12 173
e 12 182
e 12 211
e 12 212
e 12 229
e 12 232
e 12 243
e 13 46
e 13 70
e 13 76
e 13 83
e 13 89
e 13 101
e 13 115
e 13 121
e 13 131
e 13 133
e 13 138
e 13 140
e 13 155
e 13 161
e 13 162
e 13 184
e 13 186
e 13 198
e 13 224
e 13 241
e 14 28
e 14 45
e 14 52
e 14 78
e 14 85
e 14 86
e 14 104
e 14 116
e 14 117
e 14 147
e 14 152
e 14 162
e 14 170
e 14 174
e 14 179
e 14 198
e 14 202
e 14 226
e 14 239
e 14 242
e 14 245
e 15 16
e 15 20
e 15 37
e 15 39
e 15 47
e 15 65
e 15 67
e 15 71
e 15 72
e 15 104
e 15 125
e 15 127
e 15 136
e 15 139
e 15 142
e 15 144
e 15 145
e 15 153
e 15 157
e 15 162
e 15 175
e 15 192
e 15 203
e 15 205
e 15 209
e 15 230
e 15 236
e 16 27
e 16 28
e 16 35
e 16 37
e 16 42
e 16 57
e 16 63
e 16 74
e 16 75
e 16 94
e 16 112
e 16 121
e 16 138
e 16 139
e 16 147
e 16 149
e 16 152
e 16 155
e 16 157
e 16 175
e 16 179
e 16 185
e 16 195
e 16 196
e 16 201
e 16 205
e 16 211
e 16 218
e 16 233
e 16 241
e 17 31
e 17 36
e 17 47
e 17 49
e 17 52
e 17 54
e 17 61
e 17 78
e 17 81
e 17 112
e 17 114
e 17 125
e 17 137
e 17 144
e 17 152
e 17 156
e 17 160
e 17 164
e 17 180
e 17 197
e 17 247
e 17 248
e 18 19
e 18 23
e 18 60
e 18 69
e 18 78
e 18 85
e 18 120
e 18 124
e 18 127
e 18 136
e 18 152
e 18 156
e 18 180
e 18 186
e 18 189
e 18 190
e 18 209
e 18 237
e 18 246
e 19 72
e 19 87
e 19 90
e 19 91
e 19 92
e 19 115
e 19 118
e 19 130
e 19 133
e 19 147
e 19 151
e 19 157
e 19 176
e 19 188
e 19 194
e 19 203
e 19 210
e 19 212
e 19 216
e 19 219
e 19 221
e 19 247
e 20 37
e 20 57
e 20 60
e 20 73
e 20 76
e 20 85
e 20 91
e 20 103
e 20 108
e 20 112
e 20 152
e 20 159
e 20 161
e 20 168
e 20 175
e 20 179
e 20 185
e 20 190
e 20 191
e 20 217
e 21 36
e 21 50
e 21 55
e 21 59
e 21 60
e 21 69
e 21 76
e 21 86
e 21 93
e 21 114
e 21 115
e 21 118
e 21 130
e 21 131
e 21 146
e 21 153
e 21 155
e 21 171
e 21 202
e 21 225
e 21 242
e 21 243
e 22 28
e 22 31
e 22 32
e 22 33
e 22 78
e 22 79
e 22 96
e 22 110
e 22 117
e 22 124
e 22 131
e 22 138
e 22 139
e 22 154
e 22 155
e 22 162
e 22 168
e 22 184
e 22 199
e 22 203
e 22 215
e 22 222
e 22 224
e 22 250
e 23 51
e 23 56
e 23 87
e 23 89
e 23 95
e 23 97
e 23 119
e 23 124
e 23 131
e 23 135
e 23 136
e 23 137
e 23 138
e 23 165
e 23 168
e 23 192
e 23 195
e 23 199
e 23 203
e 23 205
e 23 206
e 23 223
e 23 225
e 23 230
e 23 233
e 23 238
e 24 36
e 24 38
e 24 43
e 24 53
e 24 64
e 24 81
e 24 83
e 24 109
e 24 111
e 24 127
e 24 134
e 24 135
e 24 141
e 24 152
e 24 161
e 24 169
e 24 171
e 24 185
e 24 194
e 24 203
e 24 204
e 24 234
e 24 236
e 24 237
e 25 32
e 25 42
e 25 49
e 25 52
e 25 58
e 25 61
e 25 67
e 25 78
e 25 91
e 25 110
e 25 113
e 25 118
e 25 129
e 25 130
e 25 164
e 25 185
e 25 191
e 25 194
e 25 218
e 25 224
e 25 226
e 25 231
e 25 233
e 26 27
e 26 34
e 26 40
e 26 58
e 26 90
e 26 91
e 26 106
e 26 148
e 26 165
e 26 167
e 26 192
e 26 216
e 26 217
e 26 232
e 26 236
e 26 240
e 26 243
e 27 32
e 27 33
e 27 39
e 27 46
e 27 51
e 27 68
e 27 88
e 27 94
e 27 95
e 27 104
e 27 107
e 27 123
e 27 126
e 27 148
e 27 159
e 27 162
e 27 163
e 27 166
e 27 176
e 27 179
e 27 185
e 27 193
e 27 223
e 27 233
e 27 243
e 27 245
e 27 246
e 27 249
e 28 32
e 28 38
e 28 42
e 28 45
e 28 48
e 28 64
e 28 91
e 28 94
e 28 109
e 28 111
e 28 115
e 28 123
e 28 144
e 28 178
e 28 191
e 28 194
e 28 195
e 28 218
e 28 230
e 28 246
e 29 35
e 29 59
e 29 71
e 29 73
e 29 83
e 29 107
e 29 113
e 29 130
e 29 133
e 29 158
e 29 165
e 29 168
e 29 169
e 29 226
e 29 244
e 29 249
e 30 41
e 30 49
e 30 51
e 30 65
e 30 71
e 30 85
e 30 89
e 30 98
e 30 100
e 30 108
e 30 133
e 30 136
e 30 138
e 30 144
e 30 153
e 30 163
e 30 178
e 30 193
e 30 196
e 30 203
e 30 211
e 30 212
e 30 218
e 30 222
e 30 226
e 30 227
e 31 58
e 31 83
e 31 94
e 31 97
e 31 101
e 31 113
e 31 122
e 31 126
e 31 130
e 31 134
e 31 165
e 31 191
e 31 203
e 31 223
e 31 224
e 31 241
e 31 243
e 32 40
e 32 55
e 32 76
e 32 79
e 32 108
e 32 116
e 32 154
e 32 162
e 32 163
e 32 164
e 32 174
e 32 187
e 32 192
e 32 194
e 32 197
e 32 204
e 32 211
e 32 235
e 32 239
e 33 37
e 33 44
e 33 52
e 33 53
e 33 56
e 33 59
e 33 70
e 33 74
e 33 75
e 33 78
e 33 89
e 33 96
e 33 105
e 33 108
e 33 114
e 33 115
e 33 123
e 33 165
e 33 177
e 33 202
e 33 209
e 33 238
e 33 242
e 34 62
e 34 71
e 34 75
e 34 89
e 34 93
e 34 106
e 34 119
e 34 122
e 34 124
e 34 145
e 34 190
e 34 194
e 34 217
e 34 226
e 34 240
e 34 242
e 35 60
e 35 71
e 35 73
e 35 74
e 35 81
e 35 87
e 35 94
e 35 107
e 35 108
e 35 152
e 35 153
e 35 166
e 35 167
e 35 172
e 35 177
e 35 181
e 35 191
e 35 192
e 35 193
e 35 195
e 35 200
e 35 204
e 35 213
e 35 221
e 35 223
e 35 230
e 35 238
e 35 239
e 35 247
e 35 250
e 36 38
e 36 49
e 36 70
e 36 76
e 36 83
e 36 96
e 36 107
e 36 112
e 36 122
e 36 125
e 36 132
e 36 139
e 36 146
e 36 148
e 36 152
e 36 161
e 36 164
e 36 173
e 36 176
e 36 196
e 36 198
e 36 221
e 36 224
e 36 227
e 36 240
e 37 41
e 37 75
e 37 86
e 37 95
e 37 97
e 37 108
e 37 141
e 37 148
e 37 156
e 37 168
e 37 175
e 37 187
e 37 223
e 37 238
e 38 47
e 38 50
e 38 70
e 38 77
e 38 79
e 38 90
e 38 102
e 38 107
e 38 139
e 38 150
e 38 151
e 38 152
e 38 154
e 38 168
e 38 191
e 38 205
e 38 224
e 38 233
e 38 250
e 39 40
e 39 41
e 39 68
e 39 74
e 39 75
e 39 83
e 39 99
e 39 106
e 39 107
e 39 123
e 39 141
e 39 160
e 39 179
e 39 182
e 39 192
e 39 209
e 39 223
e 39 235
e 39 244
e 40 41
e 40 42
e 40 43
e 40 59
e 40 61
e 40 78
e 40 79
e 40 90
e 40 100
e 40 106
e 40 110
e 40 115
e 40 120
e 40 125
e 40 135
e 40 141
e 40 152
e 40 161
e 40 164
e 40 167
e 40 168
e 40 174
e 40 181
e 40 185
e 40 188
e 40 191
e 40 206
e 40 223
e 40 227
e 40 229
e 40 245
e 41 45
e 41 47
e 41 53
e 41 75
e 41 97
e 41 107
e 41 119
e 41 121
e 41 123
e 41 126
e 41 138
e 41 139
e 41 147
e 41 160
e 41 161
e 41 168
e 41 169
e 41 170
e 41 173
e 41 174
e 41 175
e 41 188
e 41 198
e 41 201
e 41 209
e 41 224
e 41 229
e 41 233
e 41 239
e 41 245
e 41 248
e 42 47
e 42 66
e 42 70
e 42 72
e 42 83
e 42 99
e 42 111
e 42 114
e 42 126
e 42 134
e 42 137
e 42 178
e 42 183
e 42 184
e 42 186
e 42 192
e 42 193
e 42 201
e 42 236
e 42 249
e 43 64
e 43 65
e 43 66
e 43 74
e 43 75
e 43 77
e 43 90
e 43 99
e 43 105
e 43 108
e 43 120
e 43 123
e 43 127
e 43 134
e 43 143
e 43 175
e 43 233
e 43 237
e 43 248
e 44 46
e 44 48
e 44 54
e 44 57
e 44 79
e 44 80
e 44 81
e 44 115
e 44 128
e 44 136
e 44 138
e 44 142
e 44 161
e 44 168
e 44 184
e 44 194
e 44 201
e 44 210
e 44 213
e 44 240
e 45 64
e 45 68
e 45 79
e 45 83
e 45 110
e 45 141
e 45 142
e 45 154
e 45 162
e 45 166
e 45 171
e 45 180
e 45 183
e 45 187
e 45 194
e 45 202
e 45 231
e 45 246
e 46 48
e 46 49
e 46 53
e 46 56
e 46 73
e 46 86
e 46 104
e 46 114
e 46 123
e 46 184
e 46 194
e 46 204
e 46 219
e 46 224
e 46 230
e 46 232
e 46 248
e 47 49
e 47 53
e 47 59
e 47 63
e 47 68
e 47 72
e 47 73
e 47 78
e 47 81
e 47 94
e 47 95
e 47 105
e 47 134
e 47 149
e 47 178
e 47 202
e 47 222
e 47 226
e 47 238
e 48 76
e 48 79
e 48 85
e 48 87
e 48 93
e 48 96
e 48 116
e 48 144
e 48 150
e 48 163
e 48 171
e 48 183
e 48 200
e 48 213
e 48 217
e 48 226
e 48 227
e 48 245
e 48 248
e 48 250
e 49 51
e 49 59
e 49 72
e 49 79
e 49 93
e 49 96
e 49 102
e 49 128
e 49 135
e 49 148
e 49 150
e 49 174
e 49 187
e 49 200
e 49 212
e 49 248
e 50 57
e 50 85
e 50 99
e 50 103
e 50 105
e 50 131
e 50 132
e 50 137
e 50 147
e 50 148
e 50 158
e 50 168
e 50 176
e 50 193
e 50 204
e 50 220
e 50 233
e 50 246
e 50 248
e 51 52
e 51 59
e 51 61
e 51 67
e 51 69
e 51 82
e 51 93
e 51 94
e 51 98
e 51 99
e 51 107
e 51 108
e 51 110
e 51 116
e 51 117
e 51 125
e 51 129
e 51 146
e 51 154
e 51 155
e 51 177
e 51 202
e 51 210
e 51 222
e 51 244
e 51 246
e 52 82
e 52 91
e 52 107
e 52 112
e 52 127
e 52 141
e 52 143
e 52 149
e 52 174
e 52 176
e 52 189
e 52 194
e 52 200
e 52 216
e 52 217
e 52 218
e 52 243
e 52 245
e 52 246
e 53 62
e 53 73
e 53 78
e 53 79
e 53 84
e 53 90
e 53 98
e 53 111
e 53 120
e 53 124
e 53 133
e 53 135
e 53 144
e 53 146
e 53 155
e 53 199
e 53 206
e 53 207
e 53 208
e 53 209
e 53 219
e 53 227
e 53 229
e 53 234
e 53 243
e 54 61
e 54 71
e 54 73
e 54 75
e 54 79
e 54 82
e 54 91
e 54 122
e 54 178
e 54 185
e 54 199
e 54 202
e 54 207
e 54 208
e 55 68
e 55 72
e 55 79
e 55 89
e 55 98
e 55 110
e 55 119
e 55 123
e 55 126
e 55 154
e 55 174
e 55 186
e 55 195
e 55 208
e 55 242
e 55 243
e 56 77
e 56 81
e 56 111
e 56 114
e 56 116
e 56 119
e 56 142
e 56 150
e 56 154
e 56 175
e 56 178
e 56 209
e 56 216
e 57 63
e 57 64
e 57 65
e 57 78
e 57 101
e 57 103
e 57 113
e 57 116
e 57 138
e 57 147
e 57 154
e 57 161
e 57 181
e 57 183
e 57 191
e 57 222
e 57 236
e 58 67
e 58 73
e 58 90
e 58 91
e 58 96
e 58 102
e 58 108
e 58 115
e 58 122
e 58 135
e 58 150
e 58 157
e 58 163
e 58 168
e 58 172
e 58 187
e 58 195
e 58 209
e 58 211
e 58 221
e 58 228
e 58 235
e 59 61
e 59 64
e 59 74
e 59 76
e 59 83
e 59 94
e 59 96
e 59 97
e 59 99
e 59 103
e 59 104
e 59 118
e 59 124
e 59 144
e 59 149
e 59 158
e 59 181
e 59 182
e 59 213
e 59 217
e 59 249
e 60 86
e 60 88
e 60 90
e 60 94
e 60 96
e 60 108
e 60 142
e 60 148
e 60 149
e 60 153
e 60 154
e 60 163
e 60 164
e 60 165
e 60 169
e 60 174
e 60 180
e 60 182
e 60 189
e 60 218
e 60 231
e 60 238
e 61 80
e 61 94
e 61 95
e 61 109
e 61 114
e 61 120
e 61 124
e 61 133
e 61 135
e 61 150
e 61 169
e 61 172
e 61 175
e 61 178
e 61 181
e 61 195
e 61 200
e 61 204
e 61 208
e 61 210
e 61 212
e 61 223
e 61 225
e 61 227
e 61 242
e 62 63
e 62 88
e 62 91
e 62 129
e 62 136
e 62 148
e 62 173
e 62 194
e 62 195
e 62 216
e 62 217
e 63 78
e 63 85
e 63 91
e 63 94
e 63 97
e 63 102
e 63 117
e 63 119
e 63 140
e 63 142
e 63 146
e 63 155
e 63 156
e 63 161
e 63 165
e 63 169
e 63 170
e 63 183
e 63 195
e 63 209
e 63 212
e 63 220
e 64 92
e 64 97
e 64 111
e 64 118
e 64 136
e 64 155
e 64 156
e 64 169
e 64 171
e 64 177
e 64 206
e 64 224
e 64 235
e 64 247
e 65 67
e 65 80
e 65 85
e 65 89
e 65 99
e 65 117
e 65 129
e 65 134
e 65 141
e 65 149
e 65 152
e 65 161
e 65 165
e 65 166
e 65 181
e 65 191
e 65 196
e 65 210
e 65 235
e 65 240
e 65 243
e 66 67
e 66 79
e 66 82
e 66 83
e 66 85
e 66 108
e 66 109
e 66 111
e 66 123
e 66 125
e 66 126
e 66 134
e 66 137
e 66 145
e 66 149
e 66 152
e 66 163
e 66 200
e 66 207
e 66 219
e 66 220
e 66 221
e 66 226
e 66 230
e 67 75
e 67 76
e 67 95
e 67 96
e 67 101
e 67 103
e 67 110
e 67 140
e 67 141
e 67 148
e 67 149
e 67 153
e 67 172
e 67 184
e 67 188
e 67 204
e 67 205
e 67 210
e 67 234
e 68 75
e 68 95
e 68 99
e 68 112
e 68 126
e 68 128
e 68 130
e 68 131
e 68 132
e 68 139
e 68 146
e 68 148
e 68 197
e 68 199
e 68 209
e 68 214
e 68 220
e 68 230
e 68 231
e 68 232
e 68 247
e 69 74
e 69 78
e 69 79
e 69 84
e 69 85
e 69 86
e 69 87
e 69 88
e 69 92
e 69 106
e 69 116
e 69 144
e 69 150
e 69 159
e 69 161
e 69 164
e 69 169
e 69 172
e 69 177
e 69 187
e 69 189
e 69 195
e 69 196
e 69 202
e 69 204
e 69 205
e 69 209
e 69 219
e 69 228
e 69 234
e 69 235
e 69 236
e 69 242
e 69 250
e 70 71
e 70 81
e 70 105
e 70 106
e 70 123
e 70 153
e 70 154
e 70 166
e 70 204
e 70 211
e 70 214
e 70 220
e 70 237
e 71 90
e 71 130
e 71 135
e 71 140
e 71 141
e 71 143
e 71 163
e 71 179
e 71 180
e 71 187
e 71 189
e 71 204
e 71 206
e 71 230
e 72 81
e 72 86
e 72 91
e 72 124
e 72 138
e 72 144
e 72 152
e 72 163
e 72 165
e 72 169
e 72 174
e 72 181
e 72 205
e 72 220
e 72 226
e 72 229
e 72 231
e 72 233
e 72 238
e 72 247
e 73 96
e 73 130
e 73 137
e 73 145
e 73 171
e 73 182
e 73 188
e 73 189
e 73 204
e 73 207
e 73 211
e 73 224
e 73 227
e 73 244
e 74 76
e 74 89
e 74 93
e 74 96
e 74 97
e 74 139
e 74 142
e 74 154
e 74 155
e 74 159
e 74 173
e 74 175
e 74 208
e 74 210
e 74 249
e 75 76
e 75 87
e 75 136
e 75 142
e 75 143
e 75 147
e 75 156
e 75 166
e 75 191
e 75 201
e 75 212
e 75 225
e 75 235
e 75 237
e 75 239
e 75 249
e 76 91
e 76 103
e 76 105
e 76 106
e 76 125
e 76 130
e 76 152
e 76 157
e 76 162
e 76 172
e 76 176
e 76 196
e 76 214
e 76 216
e 76 226
e 76 236
e 76 243
e 76 246
e 77 87
e 77 105
e 77 113
e 77 123
e 77 124
e 77 127
e 77 134
e 77 141
e 77 156
e 77 161
e 77 178
e 77 185
e 77 189
e 77 231
e 77 239
e 77 241
e 77 250
e 78 79
e 78 86
e 78 96
e 78 113
e 78 122
e 78 137
e 78 161
e 78 164
e 78 180
e 78 188
e 78 193
e 78 194
e 78 213
e 78 239
e 79 99
e 79 104
e 79 107
e 79 162
e 79 168
e 79 172
e 79 175
e 79 182
e 79 189
e 79 193
e 79 201
e 79 226
e 79 228
e 79 232
e 80 85
e 80 88
e 80 106
e 80 107
e 80 115
e 80 120
e 80 121
e 80 133
e 80 137
e 80 143
e 80 144
e 80 146
e 80 164
e 80 168
e 80 169
e 80 174
e 80 176
e 80 181
e 80 182
e 80 198
e 80 200
e 80 202
e 80 210
e 81 82
e 81 97
e 81 99
e 81 108
e 81 120
e 81 139
e 81 140
e 81 145
e 81 155
e 81 161
e 81 173
e 81 190
e 81 201
e 81 217
e 81 232
e 82 98
e 82 101
e 82 102
e 82 126
e 82 134
e 82 136
e 82 140
e 82 172
e 82 177
e 82 178
e 82 184
e 82 214
e 82 219
e 82 243
e 82 245
e 82 246
e 82 249
e 83 89
e 83 109
e 83 131
e 83 141
e 83 146
e 83 149
e 83 159
e 83 163
e 83 167
e 83 171
e 83 174
e 83 175
e 83 197
e 83 210
e 83 215
e 83 220
e 83 224
e 83 228
e 83 243
e 84 91
e 84 103
e 84 132
e 84 141
e 84 150
e 84 173
e 84 180
e 84 194
e 84 200
e 84 214
e 84 231
e 84 236
e 84 241
e 85 87
e 85 90
e 85 98
e 85 104
e 85 107
e 85 122
e 85 123
e 85 144
e 85 145
e 85 147
e 85 155
e 85 158
e 85 167
e 85 168
e 85 174
e 85 192
e 85 204
e 85 216
e 85 228
e 85 232
e 85 234
e 85 250
e 86 121
e 86 126
e 86 144
e 86 164
e 86 173
e 86 184
e 86 219
e 86 232
e 86 238
e 86 245
e 87 91
e 87 101
e 87 113
e 87 131
e 87 162
e 87 175
e 87 191
e 87 195
e 87 224
e 87 230
e 87 231
e 87 241
e 87 242
e 87 248
e 88 94
e 88 105
e 88 106
e 88 107
e 88 113
e 88 163
e 88 167
e 88 170
e 88 172
e 88 184
e 88 194
e 88 199
e 88 200
e 88 208
e 88 209
e 88 213
e 88 215
e 88 222
e 88 228
e 88 239
e 89 90
e 89 93
e 89 98
e 89 122
e 89 125
e 89 146
e 89 152
e 89 153
e 89 157
e 89 161
e 89 187
e 89 196
e 89 202
e 89 205
e 89 208
e 89 235
e 89 241
e 89 246
e 90 114
e 90 116
e 90 127
e 90 141
e 90 152
e 90 164
e 90 170
e 90 193
e 90 221
e 90 233
e 90 234
e 90 248
e 91 101
e 91 107
e 91 108
e 91 150
e 91 152
e 91 157
e 91 173
e 91 183
e 91 189
e 91 210
e 91 226
e 91 241
e 92 94
e 92 101
e 92 102
e 92 108
e 92 123
e 92 127
e 92 129
e 92 149
e 92 178
e 92 186
e 92 194
e 92 203
e 92 208
e 92 212
e 92 230
e 92 232
e 92 238
e 92 248
e 93 98
e 93 110
e 93 112
e 93 120
e 93 125
e 93 143
e 93 150
e 93 159
e 93 167
e 93 193
e 93 202
e 93 204
e 93 224
e 93 229
e 93 237
e 93 246
e 94 105
e 94 117
e 94 118
e 94 153
e 94 158
e 94 159
e 94 175
e 94 178
e 94 199
e 94 223
e 94 227
e 94 228
e 94 230
e 94 237
e 94 247
e 95 103
e 95 111
e 95 139
e 95 167
e 95 209
e 95 223
e 95 230
e 95 245
e 96 98
e 96 109
e 96 125
e 96 131
e 96 134
e 96 136
e 96 150
e 96 151
e 96 157
e 96 158
e 96 161
e 96 185
e 96 187
e 96 202
e 96 211
e 96 217
e 96 223
e 96 247
e 97 98
e 97 99
e 97 112
e 97 114
e 97 119
e 97 128
e 97 130
e 97 147
e 97 149
e 97 155
e 97 181
e 97 193
e 97 205
e 97 207
e 97 221
e 97 223
e 97 243
e 98 101
e 98 102
e 98 115
e 98 122
e 98 130
e 98 133
e 98 134
e 98 176
e 98 181
e 98 186
e 98 187
e 98 190
e 98 192
e 98 216
e 98 220
e 98 244
e 99 100
e 99 104
e 99 111
e 99 115
e 99 120
e 99 135
e 99 137
e 99 144
e 99 146
e 99 158
e 99 159
e 99 168
e 99 169
e 99 180
e 99 206
e 99 213
e 99 226
e 99 229
e 99 236
e 99 241
e 100 107
e 100 112
e 100 126
e 100 129
e 100 132
e 100 133
e 100 134
e 100 135
e 100 163
e 100 191
e 100 211
e 100 217
e 100 233
e 100 237
e 100 240
e 100 245
e 101 106
e 101 137
e 101 142
e 101 161
e 101 164
e 101 192
e 101 198
e 101 199
e 101 207
e 101 212
e 101 216
e 101 223
e 101 224
e 101 232
e 101 244
e 101 250
e 102 104
e 102 135
e 102 140
e 102 142
e 102 146
e 102 167
e 102 178
e 102 183
e 102 190
e 102 201
e 102 204
e 102 227
e 102 247
e 102 250
e 103 122
e 103 141
e 103 147
e 103 150
e 103 158
e 103 164
e 103 167
e 103 172
e 103 173
e 103 189
e 103 197
e 103 205
e 103 206
e 104 122
e 104 127
e 104 136
e 104 139
e 104 148
e 104 149
e 104 154
e 104 202
e 104 212
e 104 227
e 104 229
e 104 232
e 104 237
e 104 241
e 105 118
e 105 128
e 105 153
e 105 154
e 105 157
e 105 167
e 105 170
e 105 176
e 105 183
e 105 190
e 105 200
e 105 214
e 105 224
e 105 225
e 105 230
e 105 236
e 105 245
e 106 136
e 106 137
e 106 157
e 106 173
e 106 178
e 106 189
e 106 195
e 106 196
e 106 206
e 106 228
e 106 231
e 106 240
e 106 249
e 107 113
e 107 157
e 107 160
e 107 172
e 107 173
e 107 180
e 107 183
e 107 185
e 107 193
e 107 207
e 107 212
e 107 217
e 107 227
e 108 116
e 108 120
e 108 121
e 108 124
e 108 157
e 108 192
e 108 202
e 108 206
e 108 211
e 108 212
e 108 214
e 108 220
e 108 225
e 108 229
e 109 116
e 109 117
e 109 126
e 109 129
e 109 135
e 109 143
e 109 147
e 109 157
e 109 159
e 109 162
e 109 165
e 109 172
e 109 179
e 109 200
e 109 202
e 109 220
e 109 224
e 109 237
e 110 132
e 110 142
e 110 157
e 110 160
e 110 167
e 110 182
e 110 189
e 110 190
e 110 202
e 110 210
e 110 220
e 110 229
e 110 237
e 110 240
e 110 241
e 110 247
e 111 114
e 111 124
e 111 125
e 111 141
e 111 147
e 111 149
e 111 150
e 111 157
e 111 162
e 111 163
e 111 172
e 111 182
e 111 184
e 111 189
e 111 198
e 111 210
e 111 212
e 111 213
e 111 217
e 111 218
e 112 135
e 112 154
e 112 156
e 112 159
e 112 208
e 112 230
e 112 248
e 112 250
e 113 121
e 113 122
e 113 127
e 113 136
e 113 138
e 113 174
e 113 194
e 113 208
e 113 211
e 113 212
e 113 217
e 113 218
e 113 232
e 113 248
e 114 130
e 114 141
e 114 144
e 114 150
e 114 156
e 114 172
e 114 203
e 114 221
e 114 249
e 115 117
e 115 123
e 115 128
e 115 136
e 115 157
e 115 160
e 115 165
e 115 181
e 115 201
e 115 206
e 115 208
e 115 220
e 115 229
e 116 122
e 116 127
e 116 130
e 116 131
e 116 132
e 116 133
e 116 137
e 116 143
e 116 146
e 116 153
e 116 158
e 116 166
e 116 169
e 116 174
e 116 189
e 116 212
e 116 236
e 117 121
e 117 137
e 117 143
e 117 145
e 117 160
e 117 162
e 117 173
e 117 176
e 117 178
e 117 180
e 117 186
e 117 196
e 117 204
e 117 225
e 117 228
e 117 230
e 117 231
e 117 234
e 117 238
e 118 122
e 118 132
e 118 145
e 118 146
e 118 147
e 118 150
e 118 153
e 118 158
e 118 193
e 118 205
e 118 216
e 118 219
e 118 222
e 118 233
e 118 234
e 118 235
e 118 239
e 118 244
e 118 246
e 119 120
e 119 134
e 119 148
e 119 163
e 119 196
e 119 204
e 119 215
e 119 223
e 119 224
e 119 240
e 120 122
e 120 136
e 120 138
e 120 151
e 120 155
e 120 175
e 120 184
e 120 187
e 120 188
e 120 189
e 120 199
e 120 206
e 120 222
e 120 230
e 121 142
e 121 160
e 121 166
e 121 182
e 121 198
e 121 200
e 121 203
e 121 205
e 121 237
e 121 244
e 122 123
e 122 128
e 122 129
e 122 136
e 122 151
e 122 165
e 122 166
e 122 178
e 122 189
e 122 195
e 122 206
e 122 222
e 122 241
e 122 249
e 123 130
e 123 136
e 123 137
e 123 141
e 123 143
e 123 156
e 123 157
e 123 158
e 123 165
e 123 167
e 123 190
e 123 205
e 123 210
e 123 232
e 123 242
e 123 246
e 124 127
e 124 144
e 124 151
e 124 159
e 124 167
e 124 168
e 124 169
e 124 175
e 124 179
e 124 194
e 124 200
e 124 205
e 124 210
e 124 217
e 124 219
e 124 223
e 124 228
e 124 233
e 124 248
e 125 134
e 125 147
e 125 148
e 125 150
e 125 151
e 125 153
e 125 185
e 125 199
e 125 201
e 125 202
e 125 213
e 125 223
e 125 232
e 125 233
e 125 249
e 126 131
e 126 135
e 126 145
e 126 149
e 126 153
e 126 154
e 126 159
e 126 173
e 126 179
e 126 180
e 126 184
e 126 198
e 126 206
e 126 239
e 126 241
e 127 133
e 127 139
e 127 143
e 127 144
e 127 156
e 127 161
e 127 165
e 127 172
e 127 173
e 127 204
e 127 212
e 127 216
e 127 234
e 127 243
e 127 247
e 128 133
e 128 138
e 128 142
e 128 150
e 128 152
e 128 195
e 128 203
e 128 232
e 128 236
e 128 237
e 128 242
e 129 134
e 129 136
e 129 142
e 129 143
e 129 157
e 129 168
e 129 190
e 129 206
e 129 236
e 129 237
e 129 244
e 130 138
e 130 153
e 130 155
e 130 168
e 130 174
e 130 180
e 130 183
e 130 193
e 130 209
e 130 211
e 130 216
e 130 235
e 130 239
e 130 246
e 130 249
e 131 156
e 131 175
e 131 179
e 131 192
e 131 207
e 131 208
e 131 241
e 132 148
e 132 152
e 132 166
e 132 199
e 132 200
e 132 201
e 132 202
e 132 208
e 132 213
e 132 224
e 132 226
e 132 230
e 132 238
e 133 164
e 133 173
e 133 176
e 133 181
e 133 185
e 133 191
e 133 192
e 133 206
e 133 240
e 134 135
e 134 140
e 134 145
e 134 146
e 134 150
e 134 160
e 134 186
e 134 208
e 134 209
e 134 215
e 134 218
e 134 223
e 134 249
e 135 137
e 135 172
e 135 179
e 135 187
e 135 197
e 135 209
e 135 219
e 135 232
e 135 238
e 136 138
e 136 139
e 136 148
e 136 174
e 136 175
e 136 178
e 136 180
e 136 193
e 136 203
e 136 204
e 136 210
e 136 223
e 136 226
e 136 229
e 136 240
e 136 244
e 136 249
e 137 174
e 137 175
e 137 177
e 137 191
e 137 213
e 137 215
e 137 223
e 137 234
e 138 147
e 138 152
e 138 165
e 138 169
e 138 175
e 138 184
e 138 192
e 138 202
e 138 205
e 138 207
e 138 213
e 138 221
e 138 226
e 138 241
e 139 147
e 139 148
e 139 176
e 139 181
e 139 205
e 139 208
e 139 220
e 139 229
e 139 230
e 139 244
e 140 158
e 140 171
e 140 178
e 140 182
e 140 193
e 140 209
e 140 223
e 140 228
e 140 236
e 141 153
e 141 155
e 141 166
e 141 174
e 141 178
e 141 183
e 141 184
e 141 199
e 141 201
e 141 203
e 141 236
e 141 248
e 142 168
e 142 175
e 142 179
e 142 187
e 142 189
e 142 202
e 142 206
e 142 221
e 142 227
e 142 234
e 142 242
e 143 156
e 143 175
e 143 177
e 143 185
e 143 207
e 143 232
e 143 236
e 144 151
e 144 156
e 144 167
e 144 178
e 144 194
e 144 195
e 144 197
e 144 201
e 144 212
e 144 214
e 144 220
e 144 222
e 144 233
e 144 235
e 144 236
e 144 237
e 144 241
e 145 157
e 145 158
e 145 159
e 145 179
e 145 184
e 145 190
e 145 204
e 145 221
e 145 233
e 145 235
e 145 243
e 145 248
e 146 154
e 146 160
e 146 164
e 146 174
e 146 180
e 146 204
e 146 208
e 146 232
e 147 153
e 147 160
e 147 165
e 147 173
e 147 178
e 147 187
e 147 191
e 147 194
e 147 215
e 147 225
e 147 232
e 147 233
e 147 241
e 147 250
e 148 153
e 148 159
e 148 169
e 148 184
e 148 185
e 148 187
e 148 196
e 148 199
e 148 207
e 148 210
e 148 215
e 148 216
e 148 219
e 148 238
e 148 249
e 149 157
e 149 172
e 149 190
e 149 192
e 149 196
e 149 206
e 149 235
e 150 154
e 150 157
e 150 161
e 150 166
e 150 171
e 150 172
e 150 176
e 150 178
e 150 184
e 150 186
e 150 202
e 150 205
e 150 210
e 150 241
e 151 160
e 151 205
e 151 206
e 151 230
e 151 233
e 151 234
e 151 245
e 152 163
e 152 174
e 152 181
e 152 219
e 152 222
e 152 227
e 153 155
e 153 156
e 153 159
e 153 166
e 153 185
e 153 190
e 153 194
e 153 198
e 153 200
e 153 225
e 153 233
e 153 241
e 153 246
e 153 249
e 154 171
e 154 181
e 154 192
e 154 194
e 154 196
e 154 202
e 154 217
e 154 220
e 154 222
e 154 226
e 154 228
e 154 232
e 154 242
e 154 243
e 155 169
e 155 172
e 155 173
e 155 181
e 155 187
e 155 195
e 155 203
e 155 204
e 155 217
e 155 225
e 156 161
e 156 178
e 156 186
e 156 187
e 156 239
e 156 241
e 156 243
e 156 247
e 157 183
e 157 184
e 157 188
e 157 202
e 157 205
e 157 215
e 157 233
e 157 247
e 158 159
e 158 169
e 158 199
e 158 207
e 158 208
e 158 222
e 158 235
e 158 243
e 158 250
e 159 178
e 159 189
e 159 190
e 159 196
e 159 202
e 159 207
e 159 225
e 159 228
e 159 229
e 159 246
e 159 249
e 160 161
e 160 162
e 160 171
e 160 185
e 160 192
e 160 204
e 160 216
e 160 230
e 160 235
e 160 243
e 160 248
e 161 173
e 161 177
e 161 178
e 161 189
e 161 210
e 161 215
e 161 223
e 161 236
e 161 249
e 162 163
e 162 188
e 162 189
e 162 195
e 162 199
e 162 211
e 162 220
e 162 230
e 162 231
e 162 234
e 162 242
e 163 172
e 163 177
e 163 178
e 163 183
e 163 200
e 163 204
e 163 220
e 163 222
e 163 225
e 163 239
e 163 245
e 163 249
e 164 170
e 164 186
e 164 190
e 164 193
e 164 199
e 164 201
e 164 203
e 164 214
e 164 221
e 164 234
e 164 242
e 164 247
e 164 250
e 165 189
e 165 194
e 165 196
e 165 215
e 165 222
e 165 228
e 165 233
e 165 250
e 166 169
e 166 180
e 166 198
e 166 200
e 166 239
e 166 250
e 167 169
e 167 172
e 167 176
e 167 177
e 167 179
e 167 187
e 167 209
e 167 219
e 167 226
e 167 233
e 167 234
e 167 238
e 167 239
e 167 241
e 167 244
e 168 198
e 168 200
e 168 203
e 168 204
e 168 206
e 168 218
e 168 220
e 168 222
e 168 227
e 169 182
e 169 205
e 169 206
e 169 214
e 170 172
e 170 173
e 170 174
e 170 177
e 170 180
e 170 191
e 170 221
e 170 227
e 170 229
e 171 182
e 171 183
e 171 189
e 171 206
e 171 229
e 171 239
e 172 176
e 172 180
e 172 187
e 172 201
e 172 211
e 172 213
e 172 217
e 172 233
e 172 235
e 172 238
e 172 239
e 172 247
e 173 185
e 173 188
e 173 206
e 173 215
e 173 217
e 173 223
e 173 224
e 173 229
e 173 232
e 173 237
e 173 248
e 173 250
e 174 197
e 174 201
e 174 213
e 174 215
e 174 218
e 175 189
e 175 192
e 175 193
e 175 198
e 175 210
e 175 211
e 175 231
e 175 233
e 175 234
e 175 245
e 176 180
e 176 184
e 176 202
e 176 218
e 176 250
e 177 184
e 177 189
e 177 197
e 177 199
e 177 203
e 177 208
e 177 220
e 177 229
e 177 236
e 177 243
e 177 247
e 178 179
e 178 187
e 178 190
e 178 195
e 178 198
e 178 210
e 178 215
e 178 216
e 178 217
e 178 229
e 178 230
e 178 233
e 178 239
e 179 183
e 179 184
e 179 187
e 179 189
e 179 191
e 179 192
e 179 197
e 179 205
e 179 209
e 179 214
e 179 231
e 179 243
e 180 192
e 180 203
e 180 209
e 180 220
e 180 230
e 180 232
e 180 235
e 180 242
e 181 189
e 181 200
e 181 231
e 181 237
e 182 190
e 182 195
e 182 220
e 182 222
e 182 228
e 182 237
e 183 196
e 183 204
e 183 223
e 183 227
e 183 228
e 183 229
e 183 233
e 184 185
e 184 232
e 185 188
e 185 193
e 185 194
e 185 203
e 185 224
e 185 244
e 186 204
e 186 212
e 186 225
e 187 198
e 187 211
e 187 212
e 187 225
e 187 228
e 187 246
e 188 192
e 188 202
e 188 203
e 188 205
e 188 225
e 188 232
e 188 236
e 188 245
e 189 191
e 189 206
e 189 229
e 189 243
e 189 249
e 190 204
e 190 215
e 190 242
e 190 247
e 190 249
e 191 192
e 191 201
e 191 213
e 191 214
e 191 217
e 191 241
e 191 244
e 192 194
e 192 226
e 192 233
e 192 244
e 192 245
e 192 250
e 193 196
e 193 211
e 193 225
e 193 232
e 193 234
e 193 245
e 194 217
e 194 223
e 194 227
e 195 201
e 195 202
e 195 218
e 195 235
e 195 238
e 195 242
e 195 248
e 196 204
e 196 207
e 196 217
e 196 225
e 196 236
e 196 237
e 196 243
e 196 249
e 197 219
e 197 227
e 197 243
e 197 248
e 197 249
e 197 250
e 198 208
e 198 218
e 198 219
e 198 225
e 198 227
e 198 241
e 198 250
e 199 200
e 199 201
e 199 210
e 199 223
e 199 240
e 199 249
e 200 202
e 200 207
e 200 213
e 200 221
e 200 226
e 200 230
e 200 246
e 201 202
e 201 204
e 201 205
e 201 223
e 201 230
e 201 244
e 201 250
e 202 210
e 202 218
e 202 242
e 202 243
e 203 245
e 204 205
e 204 215
e 204 217
e 204 218
e 204 230
e 204 240
e 204 249
e 205 211
e 205 213
e 205 218
e 205 240
e 206 207
e 206 209
e 206 210
e 206 218
e 206 220
e 206 227
e 206 247
e 207 234
e 207 237
e 207 249
e 208 236
e 208 245
e 208 248
e 208 250
e 209 225
e 209 230
e 209 239
e 209 244
e 210 213
e 210 215
e 210 216
e 210 217
e 210 221
e 210 236
e 210 238
e 210 243
e 211 232
e 211 235
e 211 244
e 211 248
e 212 217
e 212 220
e 212 227
e 212 237
e 212 248
e 213 215
e 213 227
e 213 230
e 213 231
e 214 218
e 214 225
e 214 240
e 214 248
e 215 218
e 215 225
e 216 233
e 217 230
e 217 233
e 217 239
e 217 241
e 217 243
e 218 222
e 218 223
e 219 230
e 219 234
e 219 235
e 219 242
e 220 233
e 220 234
e 220 235
e 220 245
e 221 230
e 222 223
e 223 234
e 223 245
e 224 226
e 225 229
e 225 238
e 225 243
e 225 247
e 226 235
e 226 236
e 226 240
e 226 247
e 227 234
e 227 242
e 228 241
e 228 247
e 228 248
e 229 241
e 229 244
e 229 245
e 230 232
e 230 242
e 230 249
e 231 238
e 231 244
e 231 247
e 232 241
e 233 243
e 234 236
e 235 237
e 236 246
e 238 239
e 238 245
e 239 244
e 240 244
e 240 245
e 240 246
e 241 250
e 242 249
e 243 245
e 244 245
e 244 248
e 244 249
e 245 250
e 246 247
